% Instancia Pequeñas #5
% Generada el 2025-11-16 10:21:20

num_trabajadores = 11;
horizonte_dias = 5;
num_semanas = 1;
TURNOS = 1..2;

demanda = array2d(1..horizonte_dias, 1..2, [
  4, 2,
  4, 2,
  4, 2,
  3, 2,
  3, 2
]);

puntajes = array3d(1..num_trabajadores, 1..horizonte_dias, 1..2, [
  0, 1,
  6, 6,
  9, 3,
  8, 5,
  8, 2,
  9, 5,
  7, 3,
  5, 9,
  10, 2,
  10, 2,
  9, 10,
  5, 5,
  7, 10,
  9, 9,
  0, 6,
  3, 0,
  2, 8,
  6, 5,
  10, 0,
  3, 8,
  10, 0,
  7, 7,
  2, 1,
  9, 10,
  3, 4,
  8, 2,
  7, 4,
  6, 4,
  2, 2,
  5, 10,
  2, 8,
  1, 2,
  4, 1,
  8, 4,
  1, 7,
  9, 4,
  7, 1,
  5, 5,
  3, 6,
  1, 6,
  8, 8,
  8, 9,
  3, 8,
  1, 9,
  6, 2,
  0, 5,
  9, 5,
  1, 2,
  6, 10,
  7, 6,
  0, 1,
  1, 1,
  9, 5,
  1, 0,
  10, 10
]);
